% seed = 0

mint = 19;
% maxt = 57;

nActs = 18;
dur = [0,2,2,6,4,4,5,0,3,3,8,1,5,1,0,5,8,0];

nSkills = 8;
sreq = [| 0,0,0,0,0,0,0,0,
	| 1,1,0,1,2,0,0,0,
	| 0,1,0,0,2,0,0,1,
	| 4,0,0,0,1,0,0,0,
	| 2,1,0,0,0,1,0,0,
	| 1,1,0,1,1,0,1,0,
	| 0,1,0,1,0,0,1,0,
	| 1,1,0,0,0,0,0,3,
	| 3,0,0,0,0,0,0,0,
	| 1,1,0,1,0,2,0,0,
	| 1,0,2,0,0,0,0,0,
	| 2,1,0,0,1,0,1,0,
	| 3,0,0,0,0,0,0,0,
	| 1,1,1,0,0,0,1,0,
	| 1,1,1,0,0,0,0,0,
	| 2,1,0,0,0,1,0,0,
	| 2,1,0,0,0,0,0,0,
	| 0,0,0,0,0,0,0,0, |];

% SumOfsreq = 64;

nResources = 10;
mastery = [| false,false,true,false,false,true,false,true,
	| false,false,true,false,true,true,true,false,
	| false,false,false,false,true,false,true,true,
	| true,true,true,false,false,false,true,false,
	| true,true,false,false,false,false,true,false,
	| false,false,false,true,false,true,true,true,
	| false,false,false,false,true,false,false,true,
	| false,true,true,false,false,false,true,true,
	| true,true,false,false,false,false,false,false,
	| true,false,false,true,false,true,true,false, |];

nPrecs = 30;
pred = [1,1,1,1,1,2,3,3,4,4,4,5,5,6,7,8,8,8,9,9,10,11,12,12,13,13,14,15,16,17];
succ = [2,3,4,5,6,17,7,8,9,13,14,10,12,11,17,9,13,14,10,12,18,18,15,16,15,16,17,17,18,18];

nUnrels = 73;
unpred = [2,2,2,2,2,2,2,2,2,2,2,2,2,2,3,3,3,3,4,4,4,4,4,5,5,5,5,5,5,5,6,6,6,6,6,6,6,6,6,6,7,7,7,7,7,7,7,7,7,8,9,9,9,10,10,10,10,10,10,10,11,11,11,11,11,11,12,12,13,14,14,15,16];
unsucc = [3,4,5,6,7,8,9,10,11,12,13,14,15,16,4,5,6,11,5,6,7,8,11,6,7,8,9,11,13,14,7,8,9,10,12,13,14,15,16,17,8,9,10,11,12,13,14,15,16,11,11,13,14,11,12,13,14,15,16,17,12,13,14,15,16,17,13,14,14,15,16,16,17];

USEFUL_RES = [{},
	{2,3,4,5,6,7,8,9,10},
	{1,2,3,4,5,6,7,8,9},
	{2,3,4,5,7,9,10},
	{1,2,4,5,6,8,9,10},
	{2,3,4,5,6,7,8,9,10},
	{2,3,4,5,6,8,9,10},
	{1,3,4,5,6,7,8,9,10},
	{4,5,9,10},
	{1,2,4,5,6,8,9,10},
	{1,2,4,5,8,9,10},
	{2,3,4,5,6,7,8,9,10},
	{4,5,9,10},
	{1,2,3,4,5,6,8,9,10},
	{1,2,4,5,8,9,10},
	{1,2,4,5,6,8,9,10},
	{4,5,8,9,10},
	{}];

POTENTIAL_ACT = [{3,5,8,10,11,14,15,16},
	{2,3,4,5,6,7,10,11,12,14,15,16},
	{2,3,4,6,7,8,12,14},
	{2,3,4,5,6,7,8,9,10,11,12,13,14,15,16,17},
	{2,3,4,5,6,7,8,9,10,11,12,13,14,15,16,17},
	{2,3,5,6,7,8,10,12,14,16},
	{2,3,4,6,8,12},
	{2,3,5,6,7,8,10,11,12,14,15,16,17},
	{2,3,4,5,6,7,8,9,10,11,12,13,14,15,16,17},
	{2,4,5,6,7,8,9,10,11,12,13,14,15,16,17}];
